\ Model VRPSPD
\ LP format - for model browsing. Use MPS format to capture full model detail.
Minimize
  300 x[0,1,1] + 300 x[0,1,2] + 300 x[0,1,3] + 713 x[0,2,1] + 713 x[0,2,2]
   + 713 x[0,2,3] + 890 x[0,3,1] + 890 x[0,3,2] + 890 x[0,3,3]
   + 300 x[1,0,1] + 300 x[1,0,2] + 300 x[1,0,3] + 825 x[1,2,1]
   + 825 x[1,2,2] + 825 x[1,2,3] + 721 x[1,3,1] + 721 x[1,3,2]
   + 721 x[1,3,3] + 713 x[2,0,1] + 713 x[2,0,2] + 713 x[2,0,3]
   + 825 x[2,1,1] + 825 x[2,1,2] + 825 x[2,1,3] + 746 x[2,3,1]
   + 746 x[2,3,2] + 746 x[2,3,3] + 890 x[3,0,1] + 890 x[3,0,2]
   + 890 x[3,0,3] + 721 x[3,1,1] + 721 x[3,1,2] + 721 x[3,1,3]
   + 746 x[3,2,1] + 746 x[3,2,2] + 746 x[3,2,3]
Subject To
 X_ijk_eq_1[1]: x[0,1,1] + x[0,1,2] + x[0,1,3] + x[1,1,1] + x[1,1,2]
   + x[1,1,3] + x[2,1,1] + x[2,1,2] + x[2,1,3] + x[3,1,1] + x[3,1,2]
   + x[3,1,3] = 1
 X_ijk_eq_1[2]: x[0,2,1] + x[0,2,2] + x[0,2,3] + x[1,2,1] + x[1,2,2]
   + x[1,2,3] + x[2,2,1] + x[2,2,2] + x[2,2,3] + x[3,2,1] + x[3,2,2]
   + x[3,2,3] = 1
 X_ijk_eq_1[3]: x[0,3,1] + x[0,3,2] + x[0,3,3] + x[1,3,1] + x[1,3,2]
   + x[1,3,3] + x[2,3,1] + x[2,3,2] + x[2,3,3] + x[3,3,1] + x[3,3,2]
   + x[3,3,3] = 1
 chega_e_sai[0,1]: - x[0,1,1] - x[0,2,1] - x[0,3,1] + x[1,0,1] + x[2,0,1]
   + x[3,0,1] = 0
 chega_e_sai[0,2]: - x[0,1,2] - x[0,2,2] - x[0,3,2] + x[1,0,2] + x[2,0,2]
   + x[3,0,2] = 0
 chega_e_sai[0,3]: - x[0,1,3] - x[0,2,3] - x[0,3,3] + x[1,0,3] + x[2,0,3]
   + x[3,0,3] = 0
 chega_e_sai[1,1]: x[0,1,1] - x[1,0,1] - x[1,2,1] - x[1,3,1] + x[2,1,1]
   + x[3,1,1] = 0
 chega_e_sai[1,2]: x[0,1,2] - x[1,0,2] - x[1,2,2] - x[1,3,2] + x[2,1,2]
   + x[3,1,2] = 0
 chega_e_sai[1,3]: x[0,1,3] - x[1,0,3] - x[1,2,3] - x[1,3,3] + x[2,1,3]
   + x[3,1,3] = 0
 chega_e_sai[2,1]: x[0,2,1] + x[1,2,1] - x[2,0,1] - x[2,1,1] - x[2,3,1]
   + x[3,2,1] = 0
 chega_e_sai[2,2]: x[0,2,2] + x[1,2,2] - x[2,0,2] - x[2,1,2] - x[2,3,2]
   + x[3,2,2] = 0
 chega_e_sai[2,3]: x[0,2,3] + x[1,2,3] - x[2,0,3] - x[2,1,3] - x[2,3,3]
   + x[3,2,3] = 0
 chega_e_sai[3,1]: x[0,3,1] + x[1,3,1] + x[2,3,1] - x[3,0,1] - x[3,1,1]
   - x[3,2,1] = 0
 chega_e_sai[3,2]: x[0,3,2] + x[1,3,2] + x[2,3,2] - x[3,0,2] - x[3,1,2]
   - x[3,2,2] = 0
 chega_e_sai[3,3]: x[0,3,3] + x[1,3,3] + x[2,3,3] - x[3,0,3] - x[3,1,3]
   - x[3,2,3] = 0
 max_k_veiculos[1]: x[0,1,1] + x[0,2,1] + x[0,3,1] <= 1
 max_k_veiculos[2]: x[0,1,2] + x[0,2,2] + x[0,3,2] <= 1
 max_k_veiculos[3]: x[0,1,3] + x[0,2,3] + x[0,3,3] <= 1
 distancia_max_k[1]: 300 x[0,1,1] + 713 x[0,2,1] + 890 x[0,3,1]
   + 300 x[1,0,1] + 825 x[1,2,1] + 721 x[1,3,1] + 713 x[2,0,1]
   + 825 x[2,1,1] + 746 x[2,3,1] + 890 x[3,0,1] + 721 x[3,1,1]
   + 746 x[3,2,1] <= 7000
 distancia_max_k[2]: 300 x[0,1,2] + 713 x[0,2,2] + 890 x[0,3,2]
   + 300 x[1,0,2] + 825 x[1,2,2] + 721 x[1,3,2] + 713 x[2,0,2]
   + 825 x[2,1,2] + 746 x[2,3,2] + 890 x[3,0,2] + 721 x[3,1,2]
   + 746 x[3,2,2] <= 7000
 distancia_max_k[3]: 300 x[0,1,3] + 713 x[0,2,3] + 890 x[0,3,3]
   + 300 x[1,0,3] + 825 x[1,2,3] + 721 x[1,3,3] + 713 x[2,0,3]
   + 825 x[2,1,3] + 746 x[2,3,3] + 890 x[3,0,3] + 721 x[3,1,3]
   + 746 x[3,2,3] <= 7000
 fluxo_y[1]: - y[0,1] + y[1,0] + y[1,2] + y[1,3] - y[2,1] - y[3,1] = 62
 fluxo_y[2]: - y[0,2] - y[1,2] + y[2,0] + y[2,1] + y[2,3] - y[3,2] = 17
 fluxo_y[3]: - y[0,3] - y[1,3] - y[2,3] + y[3,0] + y[3,1] + y[3,2] = 50
 fluxo_z[1]: z[0,1] - z[1,0] - z[1,2] - z[1,3] + z[2,1] + z[3,1] = 44
 fluxo_z[2]: z[0,2] + z[1,2] - z[2,0] - z[2,1] - z[2,3] + z[3,2] = 55
 fluxo_z[3]: z[0,3] + z[1,3] + z[2,3] - z[3,0] - z[3,1] - z[3,2] = 38
 capacidade[0,0]: - 500 x[0,0,1] - 500 x[0,0,2] - 500 x[0,0,3] + y[0,0]
   + z[0,0] <= 0
 capacidade[0,1]: - 500 x[0,1,1] - 500 x[0,1,2] - 500 x[0,1,3] + y[0,1]
   + z[0,1] <= 0
 capacidade[0,2]: - 500 x[0,2,1] - 500 x[0,2,2] - 500 x[0,2,3] + y[0,2]
   + z[0,2] <= 0
 capacidade[0,3]: - 500 x[0,3,1] - 500 x[0,3,2] - 500 x[0,3,3] + y[0,3]
   + z[0,3] <= 0
 capacidade[1,0]: - 500 x[1,0,1] - 500 x[1,0,2] - 500 x[1,0,3] + y[1,0]
   + z[1,0] <= 0
 capacidade[1,1]: - 500 x[1,1,1] - 500 x[1,1,2] - 500 x[1,1,3] + y[1,1]
   + z[1,1] <= 0
 capacidade[1,2]: - 500 x[1,2,1] - 500 x[1,2,2] - 500 x[1,2,3] + y[1,2]
   + z[1,2] <= 0
 capacidade[1,3]: - 500 x[1,3,1] - 500 x[1,3,2] - 500 x[1,3,3] + y[1,3]
   + z[1,3] <= 0
 capacidade[2,0]: - 500 x[2,0,1] - 500 x[2,0,2] - 500 x[2,0,3] + y[2,0]
   + z[2,0] <= 0
 capacidade[2,1]: - 500 x[2,1,1] - 500 x[2,1,2] - 500 x[2,1,3] + y[2,1]
   + z[2,1] <= 0
 capacidade[2,2]: - 500 x[2,2,1] - 500 x[2,2,2] - 500 x[2,2,3] + y[2,2]
   + z[2,2] <= 0
 capacidade[2,3]: - 500 x[2,3,1] - 500 x[2,3,2] - 500 x[2,3,3] + y[2,3]
   + z[2,3] <= 0
 capacidade[3,0]: - 500 x[3,0,1] - 500 x[3,0,2] - 500 x[3,0,3] + y[3,0]
   + z[3,0] <= 0
 capacidade[3,1]: - 500 x[3,1,1] - 500 x[3,1,2] - 500 x[3,1,3] + y[3,1]
   + z[3,1] <= 0
 capacidade[3,2]: - 500 x[3,2,1] - 500 x[3,2,2] - 500 x[3,2,3] + y[3,2]
   + z[3,2] <= 0
 capacidade[3,3]: - 500 x[3,3,1] - 500 x[3,3,2] - 500 x[3,3,3] + y[3,3]
   + z[3,3] <= 0
Bounds
Binaries
 x[0,0,1] x[0,0,2] x[0,0,3] x[0,1,1] x[0,1,2] x[0,1,3] x[0,2,1] x[0,2,2]
 x[0,2,3] x[0,3,1] x[0,3,2] x[0,3,3] x[1,0,1] x[1,0,2] x[1,0,3] x[1,1,1]
 x[1,1,2] x[1,1,3] x[1,2,1] x[1,2,2] x[1,2,3] x[1,3,1] x[1,3,2] x[1,3,3]
 x[2,0,1] x[2,0,2] x[2,0,3] x[2,1,1] x[2,1,2] x[2,1,3] x[2,2,1] x[2,2,2]
 x[2,2,3] x[2,3,1] x[2,3,2] x[2,3,3] x[3,0,1] x[3,0,2] x[3,0,3] x[3,1,1]
 x[3,1,2] x[3,1,3] x[3,2,1] x[3,2,2] x[3,2,3] x[3,3,1] x[3,3,2] x[3,3,3]
Generals
 y[0,0] y[0,1] y[0,2] y[0,3] y[1,0] y[1,1] y[1,2] y[1,3] y[2,0] y[2,1]
 y[2,2] y[2,3] y[3,0] y[3,1] y[3,2] y[3,3] z[0,0] z[0,1] z[0,2] z[0,3]
 z[1,0] z[1,1] z[1,2] z[1,3] z[2,0] z[2,1] z[2,2] z[2,3] z[3,0] z[3,1]
 z[3,2] z[3,3]
End
